(declare-const a Real)
(declare-const b Real)
(assert (< (+ a b) 6))
(assert (> a 0))
(assert (> b 0))
(assert (not (<= (+ -4 (* 2 (pow (+ (/ 2 3) (* (/ 1 48) (pow (+ 2 (* 2 (pow (+ (pow (+ (* (pow (+ a b) (/ 1 2)) (pow (+ a (* 7 b)) (/ -1 2))) (* (pow (+ a b) (/ 1 2)) (pow (+ b (* 7 a)) (/ -1 2)))) 2) (* 9 a b (pow (+ (* 2 (pow a 2)) (* 2 (pow b 2)) (* 13 a b)) -1))) (/ 1 2)))) 2))) 6))) 0)))
(check-sat)
(get-model)
(exit)